\* Rebalance *\
Minimize
OBJ: 120.5 x_STR001_STR002_SKU1002 + 360.2 x_STR003_STR002_SKU1002
Subject To
excess_STR001_SKU1002: x_STR001_STR002_SKU1002 <= 703364
excess_STR003_SKU1002: x_STR003_STR002_SKU1002 <= 933903
force_recognition: x_STR001_STR002_SKU1002 + x_STR003_STR002_SKU1002 >= 0
shortage_STR002_SKU1002: x_STR001_STR002_SKU1002 + x_STR003_STR002_SKU1002
 <= 21518
Bounds
 0 <= x_STR001_STR002_SKU1002
 0 <= x_STR003_STR002_SKU1002
Generals
x_STR001_STR002_SKU1002
x_STR003_STR002_SKU1002
End
